SystemName      device
SystemLabel     device

NumberOfAtoms         264
NumberOfSpecies       3

%block ChemicalSpeciesLabel
  1   79  Au
  2    8   O
  3    1   H
%endblock ChemicalSpeciesLabel

 LatticeConstant    1.000 Ang
 %block LatticeVectors
         10.475164246       0.000000000       0.000000000
          0.000000000       9.071764555       0.000000000
          0.000000000       0.000000000      44.467055785
 %endblock LatticeVectors

 AtomicCoordinatesFormat Ang
 %block AtomicCoordinatesAndAtomicSpecies
   0.000000    0.000000    0.000000    1
   2.619000    1.512000    0.000000    1
   0.873000    1.512000    2.469000    1
   3.492000    3.024000    2.469000    1
   1.746000    0.000000    4.938000    1
   4.365000    1.512000    4.938000    1
   5.238000    0.000000    0.000000    1
   7.857000    1.512000    0.000000    1
   6.111000    1.512000    2.469000    1
   8.730000    3.024000    2.469000    1
   6.984000    0.000000    4.938000    1
   9.603000    1.512000    4.938000    1
   0.000000    3.024000    0.000000    1
   2.619000    4.536000    0.000000    1
   0.873000    4.536000    2.469000    1
   3.492000    6.048000    2.469000    1
   1.746000    3.024000    4.938000    1
   4.365000    4.536000    4.938000    1
   5.238000    3.024000    0.000000    1
   7.857000    4.536000    0.000000    1
   6.111000    4.536000    2.469000    1
   8.730000    6.048000    2.469000    1
   6.984000    3.024000    4.938000    1
   9.603000    4.536000    4.938000    1
   0.000000    6.048000    0.000000    1
   2.619000    7.560000    0.000000    1
   0.873000    7.560000    2.469000    1
   3.492000    9.072000    2.469000    1
   1.746000    6.048000    4.938000    1
   4.365000    7.560000    4.938000    1
   5.238000    6.048000    0.000000    1
   7.857000    7.560000    0.000000    1
   6.111000    7.560000    2.469000    1
   8.730000    9.072000    2.469000    1
   6.984000    6.048000    4.938000    1
   9.603000    7.560000    4.938000    1
   0.000000    0.000000    7.407060    1
   2.618791    1.511960    7.407060    1
   0.000000    3.023919    7.407060    1
   2.618791    4.535879    7.407060    1
   0.000000    6.047839    7.407060    1
   2.618791    7.559799    7.407060    1
   5.237582    0.000000    7.407060    1
   7.856373    1.511960    7.407060    1
   5.237582    3.023919    7.407060    1
   7.856373    4.535879    7.407060    1
   5.237582    6.047839    7.407060    1
   7.856373    7.559799    7.407060    1
   0.711270    1.386848    9.860488    1
   3.353168    2.931263    9.934932    1
   0.635355    4.519936    9.864568    1
   3.216890    5.824864    9.852905    1
   0.658149    7.559470    9.828473    1
   3.248731    9.032394    9.853430    1
   5.883411    1.431296    9.868185    1
   8.651287    2.870913    9.863316    1
   6.030032    4.484260    9.909712    1
   8.459399    6.080678    9.970105    1
   5.907872    7.456495    9.770497    1
   8.455970    9.038714   10.071793    1
   1.658787   -0.050297   12.238955    1
   4.212389    1.659293   12.397169    1
   1.545225    2.960055   12.328867    1
   4.231756    4.685287   12.448853    1
   1.571688    6.161646   12.318574    1
   4.238880    7.507045   12.173010    1
   6.643678   -0.044695   12.488488    1
   9.552312    1.581655   12.380407    1
   6.843570    2.911396   12.334794    1
   9.504124    4.619241   12.180696    1
   6.863680    6.136634   12.357530    1
   9.466879    7.698376   12.406000    1
   1.680353    4.577395   26.044969    2
   1.629975    3.719503   26.597929    3
   0.737650    4.785336   25.675525    3
   5.757176    3.375808   23.132698    2
   5.252785    3.846588   23.770864    3
   6.502200    3.012199   23.695413    3
   2.362681    4.643103   23.191799    2
   2.380977    4.632309   24.179342    3
   3.085273    5.297862   22.966957    3
   9.378625    5.401162   24.832921    2
   9.171921    6.272865   25.259111    3
   8.763008    4.805084   25.258865    3
   6.505640    7.409842   23.777937    2
   7.364189    7.162287   23.289193    3
   6.556833    6.848065   24.624464    3
   3.636052    7.092908   22.497196    2
   4.591735    7.204984   22.692248    3
   3.616143    6.939347   21.551746    3
   3.169154   11.542516   21.290829    2
   2.744338   12.339525   21.710049    3
   4.115236   11.701292   21.495035    3
   2.019983    7.504808   26.860656    2
   2.827144    7.873698   26.540560    3
   2.081318    6.525337   26.717301    3
  10.164964   -0.434752   15.443936    2
  10.736130    0.319279   15.583720    3
  10.376106   -0.693319   14.557075    3
  -1.678200    2.606511   26.773850    2
  -2.242091    2.539454   27.542159    3
  -0.916434    2.056825   27.045086    3
   4.225182    0.526744   25.716716    2
   5.110160    0.333502   25.373737    3
   3.748661    0.720391   24.860674    3
   8.769140    6.596852   22.228932    2
   8.358069    6.048303   21.554707    3
   9.144383    5.852906   22.753730    3
   4.884432    8.259433   18.697105    2
   4.378975    9.122063   18.612506    3
   4.213995    7.621704   18.818271    3
   6.868036    0.213950   26.683128    2
   6.795496    0.208407   27.666717    3
   7.337021    1.031867   26.593909    3
   4.513676    2.115083   15.194112    2
   4.677376    3.093393   15.060824    3
   5.392847    1.784956   15.504356    3
   1.059780    4.716803   18.180023    2
   0.785741    4.135435   19.010275    3
   1.514875    4.099535   17.524485    3
   1.272671    1.476363   26.472052    2
   1.560780    1.026312   25.661211    3
   1.782762    1.060878   27.206813    3
   6.390007    5.134426   21.086263    2
   6.003351    4.530939   21.797873    3
   5.948791    4.987066   20.221910    3
   7.533045   11.794794   18.930459    2
   7.403652   11.400153   19.838898    3
   8.301063   11.362297   18.606956    3
   9.530230    4.489371   20.175394    2
   8.849741    3.953380   19.663179    3
   9.367231    4.257941   21.119368    3
   2.566437    1.222562   18.536237    2
   2.069630    0.417965   18.684854    3
   2.671976    1.684744   19.452856    3
   8.028442    7.048680   18.772863    2
   8.873467    6.637926   19.025744    3
   7.310614    6.530073   19.272550    3
  -2.542883    1.272301   23.949602    2
  -1.683447    1.006979   24.275945    3
  -3.094766    0.525033   24.030616    3
  -0.231620   12.710740   22.859368    2
   0.720038   12.883432   22.820187    3
  -0.458388   12.886226   23.793728    3
   2.411722   10.064648   23.678156    2
   2.308264   10.637591   22.910067    3
   2.255803    9.164299   23.354613    3
  -0.487313    1.037578   18.188578    2
  -1.175636    0.395942   17.827418    3
  -0.547129    0.779012   19.105570    3
   6.207634    0.700691   21.099252    2
   6.175572    0.120758   20.317659    3
   7.022386    0.427005   21.592534    3
   2.502315    7.057099   19.530271    2
   2.422143    6.202309   19.105080    3
   1.607424    7.300216   19.866906    3
  -1.301540    7.806535   25.988007    2
  -0.513990    8.267726   26.230296    3
  -2.062051    8.337251   26.234750    3
   5.183015    3.292094   26.904775    2
   4.936958    2.383580   26.483936    3
   4.359051    3.656563   27.273199    3
   6.648385    5.666739   26.448515    2
   6.233947    4.731507   26.527425    3
   6.420516    6.126576   27.306030    3
   0.162060    8.075621   20.832939    2
   0.758191    8.427774   21.493448    3
  -0.420935    7.495886   21.366084    3
   7.495230    1.036802   15.652244    2
   8.065451    1.855647   15.516147    3
   8.171557    0.407187   15.408333    3
   4.961483    7.565612   15.991279    2
   5.143253    7.695302   16.976414    3
   5.460957    8.271902   15.573703    3
   4.735636   13.145961   18.747563    2
   4.542140   13.705527   17.994912    3
   5.460835   12.553307   18.446642    3
   8.880667    6.167811   15.820932    2
   9.224858    7.064482   16.043846    3
   8.363910    5.945712   16.635373    3
  12.264041    1.326365   15.550814    2
  13.038900    1.306413   16.173304    3
  12.742108    1.366585   14.680436    3
  12.816240    6.256974   15.510973    2
  13.616914    6.621045   15.825333    3
  12.202639    6.937712   15.680764    3
   5.782133    4.778480   15.604577    2
   6.771504    4.953658   15.555336    3
   5.387097    5.595360   15.303764    3
   9.721844    3.359485   15.306523    2
  10.143785    3.131888   16.186717    3
   9.649049    4.301600   15.384911    3
   0.316322    0.127616   29.707367    1
   2.872006    1.498331   29.540367    1
   0.334122    3.014283   29.573116    1
   2.679526    4.446194   29.774574    1
   0.253925    5.933883   29.644822    1
   2.817137    7.529476   29.727805    1
   5.305089    0.066803   29.614530    1
   8.092962    1.292097   29.774976    1
   5.449774    2.983543   30.042796    1
   8.211215    4.497084   29.922252    1
   5.671751    5.979860   29.771506    1
   8.281024    7.582853   29.478148    1
   1.063625    1.560819   32.179636    1
   3.619358    3.099327   32.249258    1
   1.033455    4.611409   32.241913    1
   3.741159    6.094465   32.060206    1
   1.099268    7.615086   32.181947    1
   3.663418    9.155246   32.172807    1
   6.380108    1.253907   32.191819    1
   9.002544    3.004078   32.114780    1
   6.363241    4.492344   32.151368    1
   8.888635    6.239233   32.064459    1
   6.371259    7.408644   32.142023    1
   9.055156    9.094637   32.141033    1
   1.745861    0.000000   34.590976    1
   4.364652    1.511960   34.590976    1
   1.745861    3.023919   34.590976    1
   4.364652    4.535879   34.590976    1
   1.745861    6.047839   34.590976    1
   4.364652    7.559799   34.590976    1
   6.983443    0.000000   34.590976    1
   9.602234    1.511960   34.590976    1
   6.983443    3.023919   34.590976    1
   9.602234    4.535879   34.590976    1
   6.983443    6.047839   34.590976    1
   9.602234    7.559799   34.590976    1
   0.000000    0.000000   37.059996    1  
   2.619000    1.512000   37.059996    1
   0.873000    1.512000   39.528996    1
   3.492000    3.024000   39.528996    1
   1.746000    0.000000   41.997996    1
   4.365000    1.512000   41.997996    1
   5.238000    0.000000   37.059996    1
   7.857000    1.512000   37.059996    1
   6.111000    1.512000   39.528996    1
   8.730000    3.024000   39.528996    1
   6.984000    0.000000   41.997996    1
   9.603000    1.512000   41.997996    1
   0.000000    3.024000   37.059996    1
   2.619000    4.536000   37.059996    1
   0.873000    4.536000   39.528996    1
   3.492000    6.048000   39.528996    1
   1.746000    3.024000   41.997996    1
   4.365000    4.536000   41.997996    1
   5.238000    3.024000   37.059996    1
   7.857000    4.536000   37.059996    1
   6.111000    4.536000   39.528996    1
   8.730000    6.048000   39.528996    1
   6.984000    3.024000   41.997996    1
   9.603000    4.536000   41.997996    1
   0.000000    6.048000   37.059996    1
   2.619000    7.560000   37.059996    1
   0.873000    7.560000   39.528996    1
   3.492000    9.072000   39.528996    1
   1.746000    6.048000   41.997996    1
   4.365000    7.560000   41.997996    1
   5.238000    6.048000   37.059996    1
   7.857000    7.560000   37.059996    1
   6.111000    7.560000   39.528996    1
   8.730000    9.072000   39.528996    1
   6.984000    6.048000   41.997996    1
   9.603000    7.560000   41.997996    1
 %endblock AtomicCoordinatesAndAtomicSpecies
