NumberOfAtoms         144
NumberOfSpecies       1

%block ChemicalSpeciesLabel
  1   79  Au
%endblock ChemicalSpeciesLabel

LatticeConstant    1.000 Ang

%block LatticeVectors
        10.475164246       0.000000000       0.000000000
         0.000000000       9.071764555       0.000000000
         0.000000000       0.000000000      44.467055785
%endblock LatticeVectors

AtomicCoordinatesFormat Ang
%block AtomicCoordinatesAndAtomicSpecies
  0.000000    0.000000    0.000000    1
  2.619000    1.512000    0.000000    1
  0.873000    1.512000    2.469000    1
  3.492000    3.024000    2.469000    1
  1.746000    0.000000    4.938000    1
  4.365000    1.512000    4.938000    1
  5.238000    0.000000    0.000000    1
  7.857000    1.512000    0.000000    1
  6.111000    1.512000    2.469000    1
  8.730000    3.024000    2.469000    1
  6.984000    0.000000    4.938000    1
  9.603000    1.512000    4.938000    1
  0.000000    3.024000    0.000000    1
  2.619000    4.536000    0.000000    1
  0.873000    4.536000    2.469000    1
  3.492000    6.048000    2.469000    1
  1.746000    3.024000    4.938000    1
  4.365000    4.536000    4.938000    1
  5.238000    3.024000    0.000000    1
  7.857000    4.536000    0.000000    1
  6.111000    4.536000    2.469000    1
  8.730000    6.048000    2.469000    1
  6.984000    3.024000    4.938000    1
  9.603000    4.536000    4.938000    1
  0.000000    6.048000    0.000000    1
  2.619000    7.560000    0.000000    1
  0.873000    7.560000    2.469000    1
  3.492000    9.072000    2.469000    1
  1.746000    6.048000    4.938000    1
  4.365000    7.560000    4.938000    1
  5.238000    6.048000    0.000000    1
  7.857000    7.560000    0.000000    1
  6.111000    7.560000    2.469000    1
  8.730000    9.072000    2.469000    1
  6.984000    6.048000    4.938000    1
  9.603000    7.560000    4.938000    1
  0.000000    0.000000    7.407060    1
  2.618791    1.511960    7.407060    1
  0.000000    3.023919    7.407060    1
  2.618791    4.535879    7.407060    1
  0.000000    6.047839    7.407060    1
  2.618791    7.559799    7.407060    1
  5.237582    0.000000    7.407060    1
  7.856373    1.511960    7.407060    1
  5.237582    3.023919    7.407060    1
  7.856373    4.535879    7.407060    1
  5.237582    6.047839    7.407060    1
  7.856373    7.559799    7.407060    1
  0.711270    1.386848    9.860488    1
  3.353168    2.931263    9.934932    1
  0.635355    4.519936    9.864568    1
  3.216890    5.824864    9.852905    1
  0.658149    7.559470    9.828473    1
  3.248731    9.032394    9.853430    1
  5.883411    1.431296    9.868185    1
  8.651287    2.870913    9.863316    1
  6.030032    4.484260    9.909712    1
  8.459399    6.080678    9.970105    1
  5.907872    7.456495    9.770497    1
  8.455970    9.038714   10.071793    1
  1.658787   -0.050297   12.238955    1
  4.212389    1.659293   12.397169    1
  1.545225    2.960055   12.328867    1
  4.231756    4.685287   12.448853    1
  1.571688    6.161646   12.318574    1
  4.238880    7.507045   12.173010    1
  6.643678   -0.044695   12.488488    1
  9.552312    1.581655   12.380407    1
  6.843570    2.911396   12.334794    1
  9.504124    4.619241   12.180696    1
  6.863680    6.136634   12.357530    1
  9.466879    7.698376   12.406000    1
  0.316322    0.127616   29.707367    1
  2.872006    1.498331   29.540367    1
  0.334122    3.014283   29.573116    1
  2.679526    4.446194   29.774574    1
  0.253925    5.933883   29.644822    1
  2.817137    7.529476   29.727805    1
  5.305089    0.066803   29.614530    1
  8.092962    1.292097   29.774976    1
  5.449774    2.983543   30.042796    1
  8.211215    4.497084   29.922252    1
  5.671751    5.979860   29.771506    1
  8.281024    7.582853   29.478148    1
  1.063625    1.560819   32.179636    1
  3.619358    3.099327   32.249258    1
  1.033455    4.611409   32.241913    1
  3.741159    6.094465   32.060206    1
  1.099268    7.615086   32.181947    1
  3.663418    9.155246   32.172807    1
  6.380108    1.253907   32.191819    1
  9.002544    3.004078   32.114780    1
  6.363241    4.492344   32.151368    1
  8.888635    6.239233   32.064459    1
  6.371259    7.408644   32.142023    1
  9.055156    9.094637   32.141033    1
  1.745861    0.000000   34.590976    1
  4.364652    1.511960   34.590976    1
  1.745861    3.023919   34.590976    1
  4.364652    4.535879   34.590976    1
  1.745861    6.047839   34.590976    1
  4.364652    7.559799   34.590976    1
  6.983443    0.000000   34.590976    1
  9.602234    1.511960   34.590976    1
  6.983443    3.023919   34.590976    1
  9.602234    4.535879   34.590976    1
  6.983443    6.047839   34.590976    1
  9.602234    7.559799   34.590976    1
  0.000000    0.000000   37.059996    1  
  2.619000    1.512000   37.059996    1
  0.873000    1.512000   39.528996    1
  3.492000    3.024000   39.528996    1
  1.746000    0.000000   41.997996    1
  4.365000    1.512000   41.997996    1
  5.238000    0.000000   37.059996    1
  7.857000    1.512000   37.059996    1
  6.111000    1.512000   39.528996    1
  8.730000    3.024000   39.528996    1
  6.984000    0.000000   41.997996    1
  9.603000    1.512000   41.997996    1
  0.000000    3.024000   37.059996    1
  2.619000    4.536000   37.059996    1
  0.873000    4.536000   39.528996    1
  3.492000    6.048000   39.528996    1
  1.746000    3.024000   41.997996    1
  4.365000    4.536000   41.997996    1
  5.238000    3.024000   37.059996    1
  7.857000    4.536000   37.059996    1
  6.111000    4.536000   39.528996    1
  8.730000    6.048000   39.528996    1
  6.984000    3.024000   41.997996    1
  9.603000    4.536000   41.997996    1
  0.000000    6.048000   37.059996    1
  2.619000    7.560000   37.059996    1
  0.873000    7.560000   39.528996    1
  3.492000    9.072000   39.528996    1
  1.746000    6.048000   41.997996    1
  4.365000    7.560000   41.997996    1
  5.238000    6.048000   37.059996    1
  7.857000    7.560000   37.059996    1
  6.111000    7.560000   39.528996    1
  8.730000    9.072000   39.528996    1
  6.984000    6.048000   41.997996    1
  9.603000    7.560000   41.997996    1
%endblock AtomicCoordinatesAndAtomicSpecies
